1 1 2 0
1 3 4 0
1 -5 -6 0
1 7 1 0
1 2 6 0
1 2 8 0
1 -2 9 0
1 9 -10 0
1 11 12 0
1 13 14 0
1 -13 -15 0
1 16 17 0
1 14 -3 0
1 18 6 0
1 18 -19 0
1 20 -8 0
1 20 21 0
1 -22 10 0
1 -22 -15 0
1 -23 14 0
1 23 -24 0
1 23 25 0
1 -21 13 0
1 15 -22 0
1 -15 26 0
1 -15 -27 0
1 28 -29 0
1 24 -27 0
1 30 -31 0
1 -4 32 0
1 -4 -33 0
1 34 -4 0
1 35 -36 0
1 -35 -34 0
1 -35 -37 0
1 35 -38 0
1 39 35 0
1 39 38 0
1 39 -40 0
1 41 -32 0
1 -41 -42 0
1 -43 44 0
1 45 13 0
1 -32 -34 0
1 46 -25 0
1 -46 8 0
1 -44 -36 0
1 44 -47 0
1 44 -48 0
1 44 -38 0
1 48 -36 0
1 -48 12 0
1 -8 49 0
1 10 -22 0
1 10 50 0
1 10 -51 0
1 -25 -52 0
1 25 53 0
1 -54 55 0
1 -54 56 0
1 -54 -51 0
1 -57 45 0
1 -57 19 0
1 51 45 0
1 51 -58 0
1 -19 24 0
1 -59 -19 0
1 60 -17 0
1 61 62 0
1 61 63 0
1 -61 -29 0
1 52 -64 0
1 -65 52 0
1 65 -66 0
1 29 61 0
1 17 67 0
1 -68 69 0
1 70 -71 0
1 70 -26 0
1 70 -72 0
1 70 63 0
1 -70 29 0
1 -73 -74 0
1 -75 -76 0
1 75 -67 0
1 75 -24 0
1 -75 73 0
1 -77 -78 0
1 -78 -79 0
1 80 -77 0
1 81 77 0
1 -42 35 0
1 -40 82 0
1 -40 83 0
1 -84 -85 0
1 -84 86 0
1 -82 87 0
1 82 33 0
1 88 -89 0
1 -88 -33 0
1 90 91 0
1 90 79 0
1 90 92 0
1 90 -33 0
1 38 39 0
1 -47 56 0
1 47 93 0
1 47 -83 0
1 94 -95 0
1 -94 47 0
1 -86 96 0
1 -86 -85 0
1 85 -47 0
1 -85 -38 0
1 -97 32 0
1 97 98 0
1 -95 -99 0
1 -100 98 0
1 -100 -101 0
1 102 94 0
1 -102 50 0
1 -99 -56 0
1 -99 103 0
1 -103 -99 0
1 -103 -104 0
1 105 -97 0
1 105 106 0
1 -98 106 0
1 107 103 0
1 108 -50 0
1 108 49 0
1 -109 110 0
1 109 111 0
1 -112 52 0
1 113 63 0
1 -113 -112 0
1 101 108 0
1 114 -104 0
1 115 104 0
1 115 -108 0
1 115 102 0
1 -64 61 0
1 64 -70 0
1 -63 -61 0
1 -63 65 0
1 71 -116 0
1 117 -118 0
1 -117 -116 0
1 111 -64 0
1 -118 -109 0
1 67 72 0
1 -72 -67 0
1 -72 -75 0
1 72 -116 0
1 62 -67 0
1 116 -119 0
1 -116 120 0
1 -74 121 0
1 122 -74 0
1 -123 -124 0
1 121 125 0
1 121 126 0
1 127 -128 0
1 -127 129 0
1 130 -131 0
1 -130 127 0
1 132 -133 0
1 133 -121 0
1 -126 -131 0
1 -134 -135 0
1 135 136 0
1 135 -123 0
1 -137 138 0
1 137 128 0
1 -139 138 0
1 -139 -132 0
1 -140 141 0
1 142 -143 0
1 -142 140 0
1 141 -144 0
1 -141 145 0
1 -146 -147 0
1 -146 -148 0
1 -149 -147 0
1 150 81 0
1 -150 -151 0
1 -143 152 0
1 143 -81 0
1 153 -150 0
1 154 -146 0
1 151 149 0
1 151 -155 0
1 -156 143 0
1 89 88 0
1 157 90 0
1 -93 158 0
1 -93 90 0
1 -93 159 0
1 93 88 0
1 158 -56 0
1 160 158 0
1 -160 -161 0
1 162 -163 0
1 -162 -160 0
1 164 -165 0
1 152 -166 0
1 152 -167 0
1 -152 89 0
1 -96 90 0
1 161 168 0
1 161 160 0
1 -161 86 0
1 -169 -161 0
1 -170 -171 0
1 -172 -173 0
1 -172 93 0
1 -159 -163 0
1 -174 161 0
1 -174 -93 0
1 -175 -91 0
1 175 -176 0
1 -177 108 0
1 -178 179 0
1 178 105 0
1 176 175 0
1 -176 -178 0
1 -176 83 0
1 -180 -181 0
1 -91 178 0
1 -104 -106 0
1 106 -114 0
1 -106 182 0
1 -106 98 0
1 106 -183 0
1 184 -185 0
1 -184 -115 0
1 184 -176 0
1 179 186 0
1 -185 -184 0
1 -187 188 0
1 189 -179 0
1 -186 -190 0
1 191 185 0
1 191 192 0
1 -193 -191 0
1 194 -195 0
1 190 -196 0
1 -197 -198 0
1 -197 -199 0
1 -197 58 0
1 -200 -201 0
1 -202 -197 0
1 192 131 0
1 192 203 0
1 -198 204 0
1 -198 -197 0
1 -198 205 0
1 -198 -200 0
1 -206 204 0
1 203 -130 0
1 203 -124 0
1 -119 -207 0
1 208 -127 0
1 131 -126 0
1 -131 209 0
1 -131 -127 0
1 210 211 0
1 -207 -212 0
1 -207 208 0
1 -213 214 0
1 213 -205 0
1 213 200 0
1 211 215 0
1 211 -216 0
1 211 137 0
1 138 -215 0
1 -138 -211 0
1 138 210 0
1 -217 218 0
1 217 -129 0
1 219 -220 0
1 -120 -131 0
1 120 -208 0
1 220 -221 0
1 222 -215 0
1 -222 223 0
1 -222 224 0
1 218 219 0
1 -218 225 0
1 -216 218 0
1 -216 138 0
1 -215 125 0
1 225 -222 0
1 -221 -225 0
1 226 -227 0
1 228 -229 0
1 -228 -230 0
1 231 232 0
1 233 -234 0
1 -235 -236 0
1 -237 -238 0
1 -239 240 0
1 -239 -241 0
1 148 237 0
1 -242 243 0
1 242 141 0
1 -244 -145 0
1 -245 244 0
1 245 246 0
1 -245 -148 0
1 247 -248 0
1 -247 -249 0
1 250 -251 0
1 145 -252 0
1 -253 -147 0
1 253 -245 0
1 254 255 0
1 -246 -256 0
1 246 156 0
1 -257 166 0
1 -257 145 0
1 252 -254 0
1 258 -259 0
1 -258 246 0
1 -168 -161 0
1 168 260 0
1 168 -164 0
1 -166 259 0
1 166 -152 0
1 -166 -261 0
1 166 168 0
1 -166 262 0
1 255 263 0
1 255 -264 0
1 -262 -255 0
1 -262 141 0
1 262 -265 0
1 -163 162 0
1 -163 266 0
1 -267 -268 0
1 267 -162 0
1 267 269 0
1 -270 -188 0
1 271 -272 0
1 -271 -273 0
1 -274 -275 0
1 269 -276 0
1 -269 -163 0
1 -269 -274 0
1 269 -156 0
1 173 -268 0
1 -173 174 0
1 173 -165 0
1 -183 -180 0
1 277 171 0
1 -278 -279 0
1 278 280 0
1 278 -181 0
1 -278 281 0
1 278 -183 0
1 -282 -280 0
1 -165 -283 0
1 -165 -270 0
1 -165 -164 0
1 284 173 0
1 -279 285 0
1 -279 -187 0
1 -279 278 0
1 279 -286 0
1 287 285 0
1 287 -288 0
1 -287 286 0
1 171 -287 0
1 289 290 0
1 -289 291 0
1 289 -277 0
1 -289 -292 0
1 -289 287 0
1 289 181 0
1 -293 -285 0
1 293 294 0
1 285 279 0
1 -285 295 0
1 285 -277 0
1 285 -296 0
1 285 181 0
1 -291 179 0
1 297 -298 0
1 -290 289 0
1 290 171 0
1 299 -290 0
1 300 290 0
1 300 301 0
1 -286 -279 0
1 -286 -287 0
1 302 -303 0
1 196 -304 0
1 -209 -305 0
1 -306 307 0
1 -306 205 0
1 204 -308 0
1 -309 207 0
1 309 310 0
1 -212 138 0
1 212 -309 0
1 308 311 0
1 -310 -312 0
1 -310 214 0
1 -305 313 0
1 313 -212 0
1 314 214 0
1 223 315 0
1 -315 -316 0
1 -315 -310 0
1 316 -315 0
1 316 214 0
1 -317 198 0
1 -317 309 0
1 -318 312 0
1 -318 223 0
1 -319 316 0
1 320 -321 0
1 -322 323 0
1 322 324 0
1 -324 -325 0
1 -324 326 0
1 324 -327 0
1 328 229 0
1 -328 -319 0
1 329 -223 0
1 -329 -330 0
1 -331 -213 0
1 -229 -332 0
1 -333 -216 0
1 -334 -335 0
1 -336 -325 0
1 336 -228 0
1 -336 337 0
1 337 -338 0
1 337 -322 0
1 -338 -322 0
1 -338 336 0
1 -339 325 0
1 -339 335 0
1 -339 340 0
1 341 -325 0
1 342 335 0
1 -342 227 0
1 -343 -344 0
1 345 -346 0
1 345 225 0
1 -335 347 0
1 -335 -341 0
1 -344 -348 0
1 349 350 0
1 -351 349 0
1 -350 -227 0
1 -227 -352 0
1 227 351 0
1 -348 346 0
1 -348 -351 0
1 -348 342 0
1 353 -354 0
1 353 355 0
1 -353 356 0
1 -232 354 0
1 -234 357 0
1 -358 -359 0
1 356 360 0
1 -354 361 0
1 362 357 0
1 362 241 0
1 241 -359 0
1 241 -363 0
1 241 -364 0
1 -365 366 0
1 367 368 0
1 367 -363 0
1 363 -369 0
1 -363 251 0
1 366 370 0
1 -368 -369 0
1 -368 -365 0
1 371 372 0
1 -370 -373 0
1 370 -374 0
1 -251 -366 0
1 251 375 0
1 374 372 0
1 376 365 0
1 376 -374 0
1 -377 370 0
1 -249 -244 0
1 -249 -167 0
1 249 -258 0
1 260 374 0
1 259 -378 0
1 -379 380 0
1 379 381 0
1 -379 364 0
1 -375 -382 0
1 -375 260 0
1 -383 255 0
1 383 378 0
1 265 -384 0
1 265 385 0
1 265 261 0
1 -265 378 0
1 -386 -387 0
1 386 -388 0
1 -386 270 0
1 386 -378 0
1 -386 389 0
1 264 -388 0
1 -264 -273 0
1 390 391 0
1 392 -276 0
1 -385 -393 0
1 389 385 0
1 -389 394 0
1 -389 265 0
1 -276 255 0
1 -276 -395 0
1 -395 388 0
1 395 394 0
1 396 -392 0
1 397 269 0
1 398 396 0
1 398 386 0
1 398 -399 0
1 -398 -395 0
1 -400 252 0
1 400 399 0
1 400 401 0
1 401 402 0
1 -401 403 0
1 -401 399 0
1 275 -404 0
1 -272 -263 0
1 405 -402 0
1 -405 388 0
1 405 -406 0
1 -405 -407 0
1 -405 -408 0
1 -406 -388 0
1 406 -287 0
1 406 -409 0
1 406 -407 0
1 -410 -407 0
1 407 411 0
1 -407 396 0
1 407 -406 0
1 404 -412 0
1 -404 -397 0
1 404 262 0
1 413 -414 0
1 -415 416 0
1 -416 417 0
1 -417 -418 0
1 417 283 0
1 417 -419 0
1 -420 421 0
1 408 420 0
1 -408 -422 0
1 -303 -416 0
1 -303 414 0
1 -292 -302 0
1 -423 209 0
1 -423 -419 0
1 -424 -425 0
1 -414 292 0
1 -426 -427 0
1 -428 -429 0
1 -430 -431 0
1 430 288 0
1 432 294 0
1 -432 433 0
1 -429 434 0
1 429 428 0
1 435 -429 0
1 294 -434 0
1 -294 419 0
1 -296 436 0
1 296 425 0
1 -296 -419 0
1 307 437 0
1 -307 438 0
1 -307 439 0
1 440 -441 0
1 -440 -442 0
1 441 -443 0
1 441 429 0
1 441 439 0
1 -439 444 0
1 -437 -444 0
1 445 307 0
1 -445 -446 0
1 -446 434 0
1 312 437 0
1 311 -447 0
1 -448 -437 0
1 -327 -449 0
1 -327 447 0
1 450 -311 0
1 -447 -451 0
1 447 -440 0
1 -443 452 0
1 443 453 0
1 -443 327 0
1 -442 -453 0
1 -442 454 0
1 -455 -456 0
1 455 457 0
1 330 -450 0
1 -330 458 0
1 330 318 0
1 459 -331 0
1 460 -458 0
1 -461 462 0
1 -461 -460 0
1 -463 -313 0
1 463 -327 0
1 -340 332 0
1 -340 -331 0
1 -464 -465 0
1 464 329 0
1 466 458 0
1 -466 -467 0
1 -468 -459 0
1 468 -460 0
1 -469 -464 0
1 -347 349 0
1 -347 470 0
1 -471 -335 0
1 471 -468 0
1 471 -472 0
1 -467 -473 0
1 -474 467 0
1 -470 475 0
1 470 -476 0
1 -470 477 0
1 -470 478 0
1 -472 478 0
1 -479 -348 0
1 -479 467 0
1 -480 467 0
1 481 482 0
1 481 -483 0
1 484 -485 0
1 484 -347 0
1 -484 486 0
1 484 -479 0
1 485 -486 0
1 485 480 0
1 485 -471 0
1 487 227 0
1 488 489 0
1 490 481 0
1 483 -491 0
1 -483 492 0
1 -493 -479 0
1 -494 -495 0
1 494 -496 0
1 -494 -479 0
1 491 483 0
1 -491 -480 0
1 491 487 0
1 -497 498 0
1 499 493 0
1 -500 483 0
1 500 501 0
1 492 -502 0
1 502 503 0
1 504 505 0
1 -506 507 0
1 506 -508 0
1 506 509 0
1 509 508 0
1 510 511 0
1 510 512 0
1 513 -514 0
1 511 515 0
1 516 506 0
1 -516 -513 0
1 516 517 0
1 -516 -518 0
1 -514 -506 0
1 514 513 0
1 519 -520 0
1 521 -522 0
1 515 522 0
1 -512 523 0
1 -512 524 0
1 -522 -525 0
1 526 -527 0
1 -369 361 0
1 -369 526 0
1 -524 528 0
1 -529 -530 0
1 -528 -526 0
1 -531 -532 0
1 -531 -533 0
1 534 -526 0
1 361 535 0
1 -384 -536 0
1 -537 -531 0
1 538 -535 0
1 539 -384 0
1 -539 530 0
1 -539 538 0
1 536 540 0
1 381 -387 0
1 381 -541 0
1 -381 -389 0
1 381 -542 0
1 381 379 0
1 394 543 0
1 542 544 0
1 542 391 0
1 -542 538 0
1 541 -545 0
1 543 -546 0
1 545 -401 0
1 409 -382 0
1 547 -545 0
1 -548 -393 0
1 -382 -549 0
1 382 -550 0
1 551 -547 0
1 551 -388 0
1 -399 -280 0
1 -399 -552 0
1 -412 553 0
1 412 403 0
1 -554 -415 0
1 554 -555 0
1 554 403 0
1 -556 -551 0
1 556 399 0
1 553 402 0
1 553 -556 0
1 553 -557 0
1 552 -558 0
1 552 -559 0
1 552 -560 0
1 -552 -549 0
1 552 389 0
1 -411 561 0
1 -411 420 0
1 -411 403 0
1 -562 549 0
1 -562 -553 0
1 -557 408 0
1 -563 564 0
1 563 -560 0
1 -563 -408 0
1 565 566 0
1 565 -554 0
1 561 567 0
1 561 -403 0
1 561 568 0
1 403 -561 0
1 -403 401 0
1 -403 568 0
1 -422 564 0
1 433 568 0
1 -569 570 0
1 -569 571 0
1 564 433 0
1 -572 573 0
1 574 307 0
1 574 -575 0
1 -576 577 0
1 576 -421 0
1 576 -440 0
1 -576 578 0
1 576 294 0
1 -436 -427 0
1 436 -578 0
1 -575 574 0
1 -575 579 0
1 418 -566 0
1 418 575 0
1 421 -436 0
1 -580 571 0
1 -579 418 0
1 434 418 0
1 434 581 0
1 449 575 0
1 -449 582 0
1 578 -456 0
1 582 579 0
1 -582 583 0
1 582 -584 0
1 -427 434 0
1 427 426 0
1 453 -585 0
1 453 586 0
1 587 588 0
1 -586 589 0
1 590 -435 0
1 590 453 0
1 591 592 0
1 591 593 0
1 462 -594 0
1 -595 -462 0
1 595 586 0
1 -596 597 0
1 -596 -452 0
1 -596 -466 0
1 596 -454 0
1 -596 586 0
1 -598 -597 0
1 588 -599 0
1 599 -600 0
1 599 -588 0
1 601 -598 0
1 -601 602 0
1 -602 -603 0
1 602 -601 0
1 602 458 0
1 602 -604 0
1 -602 -465 0
1 -605 -603 0
1 -606 -607 0
1 603 601 0
1 -608 -601 0
1 608 596 0
1 608 609 0
1 608 -602 0
1 -452 -610 0
1 -452 -596 0
1 452 -606 0
1 -452 -602 0
1 454 -596 0
1 -611 -612 0
1 613 614 0
1 615 -612 0
1 614 613 0
1 -614 616 0
1 -617 478 0
1 -477 615 0
1 -477 472 0
1 -618 -619 0
1 618 -620 0
1 621 469 0
1 622 623 0
1 -623 624 0
1 -623 -625 0
1 -623 478 0
1 626 -620 0
1 -626 -491 0
1 626 -621 0
1 -498 -627 0
1 498 621 0
1 619 -628 0
1 -476 629 0
1 -476 -630 0
1 -476 631 0
1 632 -630 0
1 -632 -498 0
1 633 -619 0
1 633 -493 0
1 634 635 0
1 634 492 0
1 -636 -637 0
1 636 -502 0
1 -637 638 0
1 639 -640 0
1 -639 641 0
1 482 633 0
1 -482 -642 0
1 -643 634 0
1 503 644 0
1 642 352 0
1 642 -638 0
1 -642 492 0
1 -641 644 0
1 645 -495 0
1 645 503 0
1 495 646 0
1 -495 -647 0
1 644 497 0
1 -644 -640 0
1 -647 -495 0
1 646 495 0
1 -646 -648 0
1 -648 649 0
1 -501 646 0
1 501 649 0
1 -501 -648 0
1 650 640 0
1 527 511 0
1 -520 -514 0
1 520 -651 0
1 652 -653 0
1 652 651 0
1 653 -654 0
1 -653 655 0
1 -656 -652 0
1 656 657 0
1 -523 658 0
1 654 658 0
1 655 659 0
1 -655 361 0
1 655 -660 0
1 535 658 0
1 661 662 0
1 658 -662 0
1 660 663 0
1 664 -381 0
1 -662 -665 0
1 -662 661 0
1 -540 -659 0
1 -540 662 0
1 540 661 0
1 -666 -655 0
1 667 -664 0
1 -667 668 0
1 669 670 0
1 -669 -671 0
1 -672 673 0
1 674 -665 0
1 675 -676 0
1 -675 677 0
1 -678 532 0
1 678 679 0
1 532 -544 0
1 -532 675 0
1 532 672 0
1 -532 674 0
1 -665 672 0
1 -665 -680 0
1 681 677 0
1 682 -683 0
1 -682 684 0
1 682 -685 0
1 -679 675 0
1 679 -550 0
1 679 -678 0
1 -684 681 0
1 686 687 0
1 -686 -678 0
1 558 -555 0
1 558 -552 0
1 549 -548 0
1 549 -382 0
1 549 -688 0
1 689 -560 0
1 -560 690 0
1 560 -552 0
1 691 -689 0
1 -688 692 0
1 -692 -682 0
1 692 550 0
1 559 556 0
1 559 -693 0
1 -559 685 0
1 694 -695 0
1 696 -697 0
1 698 690 0
1 698 699 0
1 690 689 0
1 -700 701 0
1 -697 -567 0
1 697 -702 0
1 703 -704 0
1 -705 568 0
1 -695 694 0
1 695 706 0
1 695 568 0
1 -573 -569 0
1 -581 580 0
1 581 -434 0
1 707 449 0
1 707 702 0
1 -707 -705 0
1 707 708 0
1 567 -709 0
1 708 710 0
1 -711 -702 0
1 -711 -456 0
1 711 701 0
1 584 -712 0
1 -713 714 0
1 713 427 0
1 -713 702 0
1 -715 -711 0
1 715 716 0
1 715 -717 0
1 712 570 0
1 712 -713 0
1 712 718 0
1 719 -720 0
1 714 -718 0
1 -721 -722 0
1 -723 -580 0
1 -723 724 0
1 725 726 0
1 725 -727 0
1 -725 -588 0
1 -593 728 0
1 -607 -599 0
1 728 -729 0
1 728 -730 0
1 -726 731 0
1 726 -730 0
1 -732 -722 0
1 -733 725 0
1 733 730 0
1 -734 -599 0
1 735 610 0
1 735 -736 0
1 735 592 0
1 -735 737 0
1 738 739 0
1 738 740 0
1 592 591 0
1 592 -735 0
1 592 -607 0
1 -741 742 0
1 -609 614 0
1 743 -486 0
1 -736 744 0
1 -736 -609 0
1 -745 743 0
1 -745 746 0
1 -745 -616 0
1 746 747 0
1 746 -748 0
1 746 -745 0
1 -625 -622 0
1 -625 749 0
1 -750 -751 0
1 750 -615 0
1 750 -737 0
1 -627 -751 0
1 -627 749 0
1 -744 -623 0
1 -751 752 0
1 752 608 0
1 -753 452 0
1 -753 754 0
1 -749 -753 0
1 749 744 0
1 -749 -747 0
1 631 -755 0
1 631 -620 0
1 -624 -755 0
1 624 -756 0
1 624 -631 0
1 630 -632 0
1 -757 -476 0
1 755 -758 0
1 -759 744 0
1 -760 -635 0
1 629 756 0
1 -629 -761 0
1 -629 -762 0
1 629 642 0
1 763 -643 0
1 763 764 0
1 763 -765 0
1 -766 767 0
1 766 -760 0
1 766 768 0
1 762 -629 0
1 -769 -757 0
1 769 -770 0
1 -765 771 0
1 -772 762 0
1 -768 -482 0
1 -768 635 0
1 773 774 0
1 775 776 0
1 775 777 0
1 776 773 0
1 764 773 0
1 764 -772 0
1 671 778 0
1 671 661 0
1 668 660 0
1 668 661 0
1 -779 780 0
1 779 -781 0
1 -779 -667 0
1 782 -783 0
1 780 778 0
1 780 653 0
1 -780 782 0
1 778 -671 0
1 -778 -784 0
1 -683 665 0
1 781 -785 0
1 -781 -786 0
1 781 787 0
1 -783 670 0
1 -788 -680 0
1 -789 683 0
1 -790 677 0
1 790 -783 0
1 791 -549 0
1 -687 -792 0
1 -793 687 0
1 -793 -794 0
1 795 -794 0
1 -795 669 0
1 795 -796 0
1 797 798 0
1 -797 688 0
1 -797 -799 0
1 800 -692 0
1 801 568 0
1 801 -802 0
1 803 -804 0
1 -803 -794 0
1 803 -801 0
1 805 699 0
1 -806 -807 0
1 -806 797 0
1 804 -687 0
1 804 -800 0
1 -699 698 0
1 -808 809 0
1 808 802 0
1 -802 -810 0
1 802 -811 0
1 810 812 0
1 810 811 0
1 -813 -814 0
1 813 -815 0
1 -813 816 0
1 809 817 0
1 -809 -818 0
1 -809 -803 0
1 -809 -813 0
1 819 820 0
1 -820 -690 0
1 -820 -819 0
1 706 -812 0
1 812 821 0
1 -812 -822 0
1 -812 802 0
1 -823 824 0
1 825 819 0
1 -826 812 0
1 -826 819 0
1 827 -824 0
1 -704 567 0
1 709 -828 0
1 709 829 0
1 -829 -830 0
1 -831 -812 0
1 831 -832 0
1 828 709 0
1 828 833 0
1 -821 -709 0
1 -821 -827 0
1 -822 -812 0
1 822 834 0
1 822 827 0
1 -710 830 0
1 835 -836 0
1 -835 -702 0
1 835 830 0
1 832 831 0
1 -832 -722 0
1 -720 -831 0
1 -720 837 0
1 -720 838 0
1 839 727 0
1 839 840 0
1 -841 -709 0
1 -841 -842 0
1 -836 -843 0
1 836 -710 0
1 -836 830 0
1 830 -710 0
1 830 835 0
1 840 -727 0
1 840 839 0
1 837 -727 0
1 -837 -844 0
1 -845 -846 0
1 -847 848 0
1 -847 -708 0
1 849 724 0
1 -849 -721 0
1 724 -837 0
1 -724 845 0
1 850 -851 0
1 -850 -852 0
1 -850 -853 0
1 -852 -850 0
1 -853 844 0
1 -854 851 0
1 730 852 0
1 730 728 0
1 -855 851 0
1 -856 857 0
1 -856 858 0
1 -856 859 0
1 -857 -860 0
1 857 -861 0
1 -857 855 0
1 862 850 0
1 -862 -740 0
1 862 -863 0
1 862 854 0
1 861 -739 0
1 861 746 0
1 -861 863 0
1 -739 861 0
1 -739 742 0
1 748 -864 0
1 748 -865 0
1 -865 -728 0
1 -731 -866 0
1 731 -747 0
1 -867 740 0
1 -867 859 0
1 868 -869 0
1 -868 740 0
1 870 -866 0
1 -866 -749 0
1 -866 -865 0
1 -871 -864 0
1 871 -872 0
1 873 874 0
1 873 866 0
1 873 870 0
1 875 -876 0
1 754 874 0
1 -872 -877 0
1 -872 -871 0
1 878 -879 0
1 877 -770 0
1 -877 872 0
1 -877 -880 0
1 877 881 0
1 880 -771 0
1 880 770 0
1 880 -878 0
1 882 874 0
1 883 -874 0
1 -883 866 0
1 -883 884 0
1 -883 872 0
1 -883 885 0
1 -770 877 0
1 -770 -886 0
1 770 -758 0
1 -758 -887 0
1 758 768 0
1 771 879 0
1 -771 -773 0
1 -771 881 0
1 888 -753 0
1 -888 -771 0
1 888 -881 0
1 787 889 0
1 787 -890 0
1 787 797 0
1 891 -788 0
1 891 781 0
1 -891 -793 0
1 891 -787 0
1 -796 892 0
1 -794 -795 0
1 -890 -796 0
1 -784 893 0
1 784 794 0
1 -784 807 0
1 784 778 0
1 784 894 0
1 -784 -796 0
1 -895 -891 0
1 895 787 0
1 -896 784 0
1 -896 -808 0
1 -807 897 0
1 -893 -898 0
1 -893 -784 0
1 -899 794 0
1 899 807 0
1 -900 -796 0
1 -892 -901 0
1 901 902 0
1 -816 -806 0
1 -817 820 0
1 -817 816 0
1 -815 -809 0
1 -903 904 0
1 903 905 0
1 903 813 0
1 903 900 0
1 897 817 0
1 904 906 0
1 -907 -817 0
1 907 -908 0
1 -814 -898 0
1 -814 813 0
1 814 -825 0
1 909 709 0
1 909 -898 0
1 909 910 0
1 -911 -912 0
1 -911 913 0
1 -905 834 0
1 912 814 0
1 912 -914 0
1 -915 916 0
1 917 918 0
1 917 -919 0
1 -920 825 0
1 -920 834 0
1 921 -832 0
1 -922 -912 0
1 -922 910 0
1 -910 923 0
1 -910 -922 0
1 -924 909 0
1 818 -925 0
1 -818 809 0
1 818 -920 0
1 926 -727 0
1 927 924 0
1 -927 -840 0
1 927 -919 0
1 928 929 0
1 -928 -924 0
1 930 926 0
1 -930 -931 0
1 -931 928 0
1 -931 932 0
1 -933 934 0
1 933 921 0
1 -848 841 0
1 935 -936 0
1 -935 -937 0
1 -833 938 0
1 -833 939 0
1 833 -940 0
1 833 -941 0
1 938 934 0
1 939 942 0
1 939 943 0
1 941 944 0
1 -945 -946 0
1 -945 947 0
1 944 -945 0
1 937 -936 0
1 -937 -935 0
1 -943 -939 0
1 863 948 0
1 949 -862 0
1 -949 -739 0
1 -950 -951 0
1 -950 -946 0
1 -952 862 0
1 953 -952 0
1 -947 949 0
1 947 -950 0
1 -954 -949 0
1 954 -955 0
1 946 -847 0
1 859 956 0
1 -859 -856 0
1 859 867 0
1 -957 -958 0
1 -959 957 0
1 -951 -956 0
1 951 960 0
1 951 859 0
1 961 -875 0
1 962 963 0
1 962 865 0
1 -964 -965 0
1 -966 -956 0
1 -966 860 0
1 -860 -959 0
1 -860 967 0
1 860 968 0
1 -963 -964 0
1 -963 961 0
1 969 963 0
1 884 873 0
1 968 873 0
1 968 -758 0
1 -967 -858 0
1 885 882 0
1 -885 883 0
1 -965 884 0
1 970 -868 0
1 971 972 0
1 971 -811 0
1 -973 892 0
1 -973 974 0
1 973 900 0
1 975 907 0
1 906 -972 0
1 -906 974 0
1 906 976 0
1 977 -889 0
1 977 -978 0
1 974 -979 0
1 974 -895 0
1 908 917 0
1 -908 -980 0
1 -916 981 0
1 -916 -976 0
1 -982 -980 0
1 -982 -983 0
1 -980 908 0
1 -984 -985 0
1 -984 986 0
1 902 986 0
1 902 -987 0
1 -918 917 0
1 -919 988 0
1 925 989 0
1 925 -988 0
1 983 980 0
1 -990 -991 0
1 -990 -992 0
1 990 983 0
1 981 -992 0
1 988 -993 0
1 -988 -925 0
1 988 -916 0
1 988 -994 0
1 -923 818 0
1 -923 990 0
1 -923 -995 0
1 991 -989 0
1 996 -981 0
1 -996 -989 0
1 996 935 0
1 -989 -996 0
1 -989 923 0
1 995 -997 0
1 997 917 0
1 934 930 0
1 934 989 0
1 998 929 0
1 999 1000 0
1 999 -942 0
1 -999 1001 0
1 1002 942 0
1 -1003 -1004 0
1 -1003 943 0
1 -1005 -1004 0
1 -1005 940 0
1 -1006 -1005 0
1 1007 1008 0
1 1007 -1009 0
1 1007 958 0
1 932 955 0
1 1010 -1003 0
1 955 1009 0
1 958 1011 0
1 -958 -1012 0
1 958 -954 0
1 -1013 955 0
1 -940 -1014 0
1 940 -1015 0
1 1011 1016 0
1 1011 1014 0
1 1017 -955 0
1 1018 954 0
1 1018 -1019 0
1 -1020 -1013 0
1 1021 -966 0
1 1021 1022 0
1 1023 -944 0
1 1023 1024 0
1 -1025 -1023 0
1 960 -963 0
1 960 1026 0
1 -1024 -1027 0
1 -1028 -885 0
1 1028 1029 0
1 1022 1028 0
1 1030 -954 0
1 -1030 -1024 0
1 1031 1021 0
1 1032 -1033 0
1 1034 985 0
1 994 978 0
1 -1035 1034 0
1 1035 993 0
1 -1035 972 0
1 1035 -1032 0
1 1036 -992 0
1 -978 1032 0
1 978 -979 0
1 979 993 0
1 -979 -978 0
1 979 -974 0
1 979 1037 0
1 1038 -934 0
1 -1038 1033 0
1 1039 995 0
1 -1039 1036 0
1 -1040 1041 0
1 -985 -1042 0
1 -987 -994 0
1 -1043 989 0
1 -1044 -1045 0
1 1041 1045 0
1 1041 -1002 0
1 -1046 -1001 0
1 -1047 -1048 0
1 1047 -1041 0
1 1047 -1044 0
1 1047 1043 0
1 -1045 -1033 0
1 -1045 1049 0
1 1045 -1043 0
1 -1001 1050 0
1 1000 1050 0
1 -1000 1051 0
1 1052 -1053 0
1 1052 1054 0
1 -1055 1046 0
1 1055 1014 0
1 -1055 -1051 0
1 -1051 1056 0
1 1051 -1057 0
1 -1051 1001 0
1 1056 -989 0
1 1058 -1059 0
1 -1050 -1060 0
1 -1050 -1000 0
1 1019 -1018 0
1 1061 1062 0
1 1063 1064 0
1 1065 -1062 0
1 -1066 1016 0
1 1062 -1067 0
1 1054 1052 0
1 -1053 1068 0
1 -1053 -1057 0
1 -1053 1019 0
1 1016 -1013 0
1 1069 -1015 0
1 -1069 -1029 0
1 -1070 -1015 0
1 -1042 -1071 0
1 -1072 987 0
1 1073 -1071 0
1 1074 -1075 0
1 1071 978 0
1 -1037 1073 0
1 1048 1061 0
1 -1076 -1050 0
1 1077 -1049 0
1 1077 1078 0
1 1079 -1080 0
1 -1079 -1060 0
1 -1079 -1048 0
1 1081 -1077 0
1 1057 -1058 0
1 -1060 -1079 0
1 1068 -1054 0
1 1078 -1077 0
1 1078 -1076 0
1 -1082 1046 0
